p tw 325 522
1 11
1 12
1 14
2 3
2 4
2 75
3 4
3 5
4 6
5 7
5 75
6 7
6 8
7 76
8 10
8 76
9 10
9 15
9 23
9 77
10 77
11 17
11 18
12 13
12 16
13 14
13 16
14 15
15 23
15 27
16 17
17 22
18 20
18 21
19 20
19 22
19 26
20 21
21 31
22 25
23 24
24 27
24 82
25 28
25 29
26 32
26 39
27 29
27 86
28 30
28 39
29 88
30 40
30 41
31 32
31 33
32 33
33 34
34 35
34 45
35 36
35 37
36 37
36 48
37 38
38 48
38 51
39 44
39 45
40 42
40 44
41 42
41 43
42 186
43 185
43 186
44 46
45 50
46 47
46 190
47 190
47 191
48 49
49 50
49 51
50 52
50 54
50 228
51 53
52 53
52 54
53 54
55 56
55 58
55 60
56 57
56 58
56 64
57 64
57 66
58 59
59 60
59 61
60 78
61 62
61 63
62 64
62 68
63 68
63 78
64 67
65 107
65 151
65 152
66 67
66 70
66 73
67 69
67 71
68 69
68 80
69 74
70 71
70 73
71 72
72 73
72 74
74 111
75 78
76 77
77 81
78 79
79 80
79 81
80 323
81 92
81 93
82 83
82 84
83 85
83 93
84 85
84 87
85 89
86 87
86 88
87 89
88 90
89 90
90 91
91 97
91 99
92 93
92 94
93 95
94 120
94 125
94 139
95 96
95 101
96 97
96 98
97 100
97 104
98 101
98 102
99 185
99 196
99 200
100 200
100 201
101 102
102 103
103 105
103 107
104 105
104 106
105 106
105 107
106 108
108 152
108 201
108 204
109 110
109 111
109 112
110 112
110 122
111 113
111 114
112 113
112 124
113 115
113 124
114 115
114 127
115 126
116 117
116 119
116 120
117 322
117 323
118 119
118 121
118 122
119 322
120 121
121 125
122 123
123 124
123 141
124 141
125 140
126 127
126 128
127 129
128 129
128 130
129 130
130 131
131 132
131 133
132 134
132 135
133 135
133 136
134 146
134 149
134 166
135 136
135 137
136 138
137 138
137 169
138 170
139 142
139 143
140 141
140 144
142 145
142 148
143 150
143 151
144 145
144 146
145 147
146 147
147 148
147 149
148 171
149 167
149 171
150 155
150 156
151 154
152 153
153 217
153 218
154 157
154 158
155 156
155 157
156 159
157 159
158 160
158 161
159 160
160 162
161 163
161 164
162 163
162 178
163 165
164 165
164 217
165 224
166 167
166 169
167 168
168 171
168 173
169 170
169 175
169 177
170 175
171 172
172 173
172 178
173 174
174 177
174 180
175 261
175 278
176 177
176 261
176 262
178 179
178 180
178 229
179 180
179 225
180 182
180 230
181 182
181 270
181 275
182 183
182 184
183 240
183 241
184 240
184 272
185 187
186 188
187 188
187 195
188 189
189 192
189 194
190 191
191 192
192 193
192 199
193 194
193 197
194 195
195 196
196 198
197 198
197 199
198 199
198 202
199 203
200 201
202 203
202 205
203 209
204 205
204 206
205 208
205 209
206 207
206 208
207 212
207 219
208 324
209 211
210 211
210 215
210 222
211 216
212 219
212 324
213 214
213 220
213 221
213 223
214 219
214 324
215 216
215 222
215 227
216 245
217 218
218 220
220 221
221 224
222 223
223 227
224 226
225 230
225 238
226 229
226 232
227 231
228 246
228 248
229 239
230 238
231 232
231 235
232 233
233 234
233 235
234 237
234 239
235 236
235 237
236 242
236 243
237 242
238 241
239 241
239 292
240 274
242 244
243 244
243 251
244 251
245 251
245 252
246 247
246 248
247 249
247 250
248 250
248 256
249 252
249 253
250 253
250 256
252 254
252 255
253 254
253 257
254 259
255 304
255 305
256 257
256 258
257 258
257 259
258 260
259 260
260 307
261 262
261 263
262 263
262 265
263 278
264 265
264 267
264 270
265 266
266 267
266 268
267 269
267 271
268 269
268 279
269 279
270 271
271 275
272 273
272 274
273 275
273 277
273 280
274 277
275 276
276 280
276 281
276 284
277 289
277 290
278 325
279 284
280 282
280 283
281 282
281 286
281 287
282 287
283 290
283 293
284 285
285 286
285 325
286 325
287 288
288 293
288 316
289 291
289 292
290 294
291 294
291 298
292 295
293 296
294 296
295 297
295 299
296 298
296 316
297 298
297 318
298 317
299 300
299 301
300 309
300 312
300 313
301 302
301 303
301 308
302 305
302 310
303 308
303 310
303 311
304 306
304 307
305 306
306 307
308 309
309 311
310 314
311 312
311 314
312 315
312 320
313 320
313 321
314 315
315 321
316 317
316 319
317 318
317 319
318 319
320 321
322 323
